
  52    4
  10   10   10   10

   0   0   0   0   0  19 2 3 4 5 6 7 8 9 10 11 12 14 15 16 20 21 24 26 28 
   7   3   6   0   0  13 51 50 49 48 37 36 33 32 31 30 27 19 18 
   6   7   8   0   0  14 51 50 49 48 47 46 39 38 37 36 35 34 32 31 
   7   7   0   3   0  12 50 48 47 46 45 38 37 36 35 33 31 29 
   8   0   4   0   2   5 50 38 32 29 13 
   3   4   0   8   0   6 49 48 37 27 23 19 
  10   0   3   5   0   8 49 47 45 38 37 36 35 25 
   6   0   9   8   0   7 49 48 43 38 35 27 17 
   4   0   0   7   7   5 49 36 32 29 22 
   2   0   6   0  10   7 48 47 45 42 37 35 25 
   8   4   5   0   0  10 49 47 46 45 42 41 38 37 35 34 
   5   0  10   0   6   6 49 48 45 36 35 25 
   7   0   8   0   8   7 49 48 46 45 37 36 31 
   1   0   0   7  10   3 49 48 17 
   5   0   8   7   0   6 50 49 48 47 34 31 
   7   7   7   0   0   5 46 44 43 39 29 
   4   0   8   0   6   7 47 46 45 44 41 40 36 
   7   0  10   3   0   5 46 45 42 38 29 
  10   9   0   8   0   6 47 46 44 42 38 35 
   9   7   7   0   0   3 37 35 29 
   2   0   0   8   8   4 44 43 39 35 
  10   7  10   0   0   2 41 27 
   2   0   9   8   0   5 46 43 42 41 40 
  10   6   0   0   5   5 47 45 42 41 40 
   7  10   0   0  10   4 46 43 41 34 
   4   7   2   0   0   4 48 43 41 34 
   8  10   0  10   0   4 47 45 44 42 
   1   0   0   6   3   3 42 41 34 
   5   0   5   7   0   2 41 34 
   2  10   0  10   0   2 41 34 
   9   0  10   0   6   2 43 41 
   8   0   0   8  10   2 45 43 
   8  10   0   9   0   2 43 41 
   3   7   0   9   0   1 40 
  10  10  10   0   0   1 40 
   8   0   5   5   0   1 42 
   3   8   0   8   0   1 44 
   6   0   9   0  10   1 40 
  10   8   8   0   0   1 42 
   3   8   9   0   0   1 52
   6   0   0  10   9   1 52
   1   5   0   0   9   1 52
   8   4   0   0   5   1 52
   2   0   0   8   9   1 52
   9   0   6   0  10   1 52
   9   0   9   9   0   1 52
  10   0   9   0  10   1 52
   7  10   0   0   4   1 52
   8   0   7   9   0   1 52
   5  10  10   0   0   1 52
   5   9   0   7   0   1 52
   0   0   0   0   0   0 
